
Gurobi 9.0.1 (linux64) logging started Thu Apr 30 15:38:24 2020

Gurobi Optimizer version 9.0.1 build v9.0.1rc0 (linux64)
Optimize a model with 13307 rows, 12060 columns and 202950 nonzeros
Model fingerprint: 0xa7954b77
Variable types: 0 continuous, 12060 integer (12032 binary)
Coefficient statistics:
  Matrix range     [1e+00, 1e+01]
  Objective range  [3e+00, 1e+02]
  Bounds range     [1e+00, 1e+00]
  RHS range        [1e+00, 1e+00]

User MIP start produced solution with objective 998 (0.24s)
Loaded user MIP start with objective 998

Presolve removed 5054 rows and 3900 columns
Presolve time: 2.89s
Presolved: 8253 rows, 8160 columns, 165405 nonzeros
Variable types: 0 continuous, 8160 integer (8134 binary)

Root simplex log...

Iteration    Objective       Primal Inf.    Dual Inf.      Time
    2891    5.5116675e+02   1.060658e+04   0.000000e+00      5s
    8241    5.7947336e+02   1.902492e+03   0.000000e+00     10s
   10993    5.8469324e+02   1.015011e+04   0.000000e+00     15s
   13876    5.8892935e+02   1.356160e+02   0.000000e+00     20s
   14518    5.8923550e+02   0.000000e+00   0.000000e+00     22s

Root relaxation: objective 5.892355e+02, 14518 iterations, 18.72 seconds

    Nodes    |    Current Node    |     Objective Bounds      |     Work
 Expl Unexpl |  Obj  Depth IntInf | Incumbent    BestBd   Gap | It/Node Time

     0     0  589.23550    0 1555  998.00000  589.23550  41.0%     -   23s
     0     0  613.75828    0 1584  998.00000  613.75828  38.5%     -   46s
     0     0  614.60709    0 1576  998.00000  614.60709  38.4%     -   52s
     0     0  614.62270    0 1566  998.00000  614.62270  38.4%     -   52s
     0     0  614.62292    0 1575  998.00000  614.62292  38.4%     -   53s
     0     0  626.69130    0 1594  998.00000  626.69130  37.2%     -   79s
     0     0  627.23239    0 1571  998.00000  627.23239  37.2%     -   85s
     0     0  628.17679    0 1602  998.00000  628.17679  37.1%     -   91s
     0     0  628.19205    0 1606  998.00000  628.19205  37.1%     -   92s
     0     0  628.19520    0 1594  998.00000  628.19520  37.1%     -   92s
     0     0  633.84943    0 1658  998.00000  633.84943  36.5%     -  121s
     0     0  634.47939    0 1635  998.00000  634.47939  36.4%     -  129s
     0     0  634.52764    0 1625  998.00000  634.52764  36.4%     -  131s
     0     0  634.53487    0 1622  998.00000  634.53487  36.4%     -  132s
     0     0  637.55472    0 1659  998.00000  637.55472  36.1%     -  156s
     0     0  638.04154    0 1665  998.00000  638.04154  36.1%     -  164s
     0     0  638.11037    0 1650  998.00000  638.11037  36.1%     -  167s
     0     0  638.11969    0 1645  998.00000  638.11969  36.1%     -  167s
     0     0  638.80207    0 1667  998.00000  638.80207  36.0%     -  180s
     0     0  638.86060    0 1674  998.00000  638.86060  36.0%     -  183s
     0     0  638.89810    0 1682  998.00000  638.89810  36.0%     -  184s
     0     0  638.90230    0 1677  998.00000  638.90230  36.0%     -  185s
     0     0  640.04520    0 1630  998.00000  640.04520  35.9%     -  198s
     0     0  640.21911    0 1684  998.00000  640.21911  35.8%     -  203s
     0     0  640.25240    0 1675  998.00000  640.25240  35.8%     -  205s
     0     0  640.26944    0 1684  998.00000  640.26944  35.8%     -  206s
     0     0  640.27242    0 1684  998.00000  640.27242  35.8%     -  207s
     0     0  640.85056    0 1698  998.00000  640.85056  35.8%     -  214s
     0     0  640.92515    0 1730  998.00000  640.92515  35.8%     -  219s
     0     0  640.96451    0 1738  998.00000  640.96451  35.8%     -  221s
     0     0  640.96952    0 1741  998.00000  640.96952  35.8%     -  222s
     0     0  641.05186    0 1726  998.00000  641.05186  35.8%     -  228s
     0     0  641.08382    0 1716  998.00000  641.08382  35.8%     -  232s
     0     0  641.08798    0 1724  998.00000  641.08798  35.8%     -  233s
     0     0  641.38498    0 1708  998.00000  641.38498  35.7%     -  239s
     0     0  641.42545    0 1719  998.00000  641.42545  35.7%     -  246s
     0     0  641.44647    0 1716  998.00000  641.44647  35.7%     -  247s
     0     0  641.45202    0 1716  998.00000  641.45202  35.7%     -  248s
     0     0  642.02084    0 1707  998.00000  642.02084  35.7%     -  256s
     0     0  642.11962    0 1718  998.00000  642.11962  35.7%     -  260s
     0     0  642.14894    0 1717  998.00000  642.14894  35.7%     -  262s
     0     0  642.15584    0 1714  998.00000  642.15584  35.7%     -  263s
     0     0  642.55018    0 1709  998.00000  642.55018  35.6%     -  270s
     0     0  642.59478    0 1733  998.00000  642.59478  35.6%     -  274s
     0     0  642.60522    0 1743  998.00000  642.60522  35.6%     -  275s
     0     0  642.72521    0 1726  998.00000  642.72521  35.6%     -  279s
     0     0  642.79098    0 1716  998.00000  642.79098  35.6%     -  283s
     0     0  642.80518    0 1732  998.00000  642.80518  35.6%     -  285s
     0     0  642.99862    0 1723  998.00000  642.99862  35.6%     -  292s
     0     0  643.04008    0 1730  998.00000  643.04008  35.6%     -  304s
     0     0  643.05049    0 1735  998.00000  643.05049  35.6%     -  305s
     0     0  643.13396    0 1727  998.00000  643.13396  35.6%     -  309s
     0     0  643.14863    0 1733  998.00000  643.14863  35.6%     -  312s
     0     0  643.26063    0 1705  998.00000  643.26063  35.5%     -  317s
     0     0  643.26063    0 1701  998.00000  643.26063  35.5%     -  323s
     0     0  643.26600    0 1543  998.00000  643.26600  35.5%     -  357s
     0     0  643.26600    0 1577  998.00000  643.26600  35.5%     -  387s
     0     0  643.26600    0 1681  998.00000  643.26600  35.5%     -  416s
     0     0  643.75997    0 1664  998.00000  643.75997  35.5%     -  430s
     0     0  643.98719    0 1661  998.00000  643.98719  35.5%     -  434s
     0     0  644.03708    0 1667  998.00000  644.03708  35.5%     -  436s
     0     0  644.05257    0 1665  998.00000  644.05257  35.5%     -  438s
     0     0  644.05984    0 1678  998.00000  644.05984  35.5%     -  439s
     0     0  644.89498    0 1684  998.00000  644.89498  35.4%     -  449s
     0     0  644.96067    0 1663  998.00000  644.96067  35.4%     -  452s
     0     0  644.98231    0 1666  998.00000  644.98231  35.4%     -  453s
     0     0  644.98528    0 1670  998.00000  644.98528  35.4%     -  454s
     0     0  645.99774    0 1677  998.00000  645.99774  35.3%     -  471s
     0     0  646.18060    0 1684  998.00000  646.18060  35.3%     -  476s
     0     0  646.24770    0 1687  998.00000  646.24770  35.2%     -  479s
     0     0  646.25413    0 1701  998.00000  646.25413  35.2%     -  479s
     0     0  647.37774    0 1684  998.00000  647.37774  35.1%     -  497s
     0     0  647.54157    0 1706  998.00000  647.54157  35.1%     -  502s
     0     0  647.71133    0 1699  998.00000  647.71133  35.1%     -  505s
     0     0  647.76339    0 1708  998.00000  647.76339  35.1%     -  507s
     0     0  647.77191    0 1708  998.00000  647.77191  35.1%     -  508s
     0     0  648.25946    0 1695  998.00000  648.25946  35.0%     -  515s
     0     0  648.30794    0 1688  998.00000  648.30794  35.0%     -  518s
     0     0  648.32179    0 1688  998.00000  648.32179  35.0%     -  520s
     0     0  648.67434    0 1708  998.00000  648.67434  35.0%     -  527s
     0     0  648.71536    0 1700  998.00000  648.71536  35.0%     -  531s
     0     0  648.72759    0 1709  998.00000  648.72759  35.0%     -  532s
     0     0  649.16825    0 1698  998.00000  649.16825  35.0%     -  539s
     0     0  649.24957    0 1711  998.00000  649.24957  34.9%     -  543s
     0     0  649.25768    0 1719  998.00000  649.25768  34.9%     -  545s
     0     0  649.35847    0 1719  998.00000  649.35847  34.9%     -  550s
     0     0  649.38171    0 1706  998.00000  649.38171  34.9%     -  554s
     0     0  650.13403    0 1708  998.00000  650.13403  34.9%     -  565s
     0     0  650.23261    0 1714  998.00000  650.23261  34.8%     -  571s
     0     0  650.25563    0 1719  998.00000  650.25563  34.8%     -  572s
     0     0  650.43716    0 1703  998.00000  650.43716  34.8%     -  577s
     0     0  650.45534    0 1708  998.00000  650.45534  34.8%     -  582s
     0     0  650.97807    0 1677  998.00000  650.97807  34.8%     -  590s
     0     0  651.03695    0 1710  998.00000  651.03695  34.8%     -  593s
     0     0  651.05590    0 1711  998.00000  651.05590  34.8%     -  594s
     0     0  651.31516    0 1692  998.00000  651.31516  34.7%     -  601s
     0     0  651.35597    0 1703  998.00000  651.35597  34.7%     -  604s
     0     0  651.37596    0 1700  998.00000  651.37596  34.7%     -  606s
     0     0  651.69124    0 1701  998.00000  651.69124  34.7%     -  614s
     0     0  651.74851    0 1722  998.00000  651.74851  34.7%     -  618s
     0     0  651.75935    0 1704  998.00000  651.75935  34.7%     -  619s
     0     0  651.77310    0 1711  998.00000  651.77310  34.7%     -  622s
     0     0  651.77310    0 1701  998.00000  651.77310  34.7%     -  626s
     0     2  651.77554    0 1701  998.00000  651.77554  34.7%     -  679s
     1     4  654.10628    1 1701  998.00000  651.77554  34.7%  6032  705s
     2     5  656.38553    1 1535  998.00000  654.10628  34.5%  6617  734s
     3     5  661.53592    2 1585  998.00000  654.10746  34.5%  7152  768s
     4     6  658.27105    2 1666  998.00000  656.38601  34.2%  6719  791s
     5     7  658.51633    3 1660  998.00000  656.38601  34.2%  5587  795s
     6     8  679.28716    4 1429  998.00000  656.38601  34.2%  7727  864s
     7     9  659.31071    4 1626  998.00000  656.38601  34.2%  6971  873s
     8    10  702.57897    5 1443  998.00000  656.38601  34.2% 11079 1011s
    10    12  659.84725    6 1648  998.00000  656.38601  34.2%  9205 1021s
    11    13  660.10597    7 1667  998.00000  656.38601  34.2%  8560 1026s
    12    14  683.32561    7 1543  998.00000  656.38601  34.2%  9412 1076s
    13    15  660.84423    8 1675  998.00000  656.38601  34.2%  8874 1083s
    14    16  700.98118    8 1405  998.00000  656.38601  34.2%  9247 1123s
    15    17  661.25602    9 1643  998.00000  656.38601  34.2%  8786 1130s
    16    18  679.30287    9 1509  998.00000  656.38601  34.2%  9246 1175s
    18    20  678.33539   10 1456  998.00000  656.38601  34.2%  9380 1244s
    19    21  661.87700   11 1659  998.00000  656.38601  34.2%  9001 1250s
    20    22  671.56810   11 1481  998.00000  656.38601  34.2%  9181 1281s
    21    23  662.21589   12 1677  998.00000  656.38601  34.2%  8811 1286s
    22    24  677.93672   12 1514  998.00000  656.38601  34.2%  9027 1333s
    23    25  662.31546   13 1670  998.00000  656.38601  34.2%  8688 1336s
    24    26  662.74296   14 1654  998.00000  656.38601  34.2%  8452 1343s
    25    27  663.05954   15 1653  998.00000  656.38601  34.2%  8186 1347s
    26    28  663.40331   16 1649  998.00000  656.38601  34.2%  7976 1354s
    27    29  688.90666   16 1479  998.00000  656.38601  34.2%  8248 1402s
    28    30  663.66160   17 1637  998.00000  656.38601  34.2%  7988 1406s
    29    31  689.12031   17 1468  998.00000  656.38601  34.2%  9195 1536s
    31    33  689.75107   19 1511  998.00000  656.38601  34.2%  9202 1585s
    32    34  663.97912   19 1647  998.00000  656.38601  34.2%  8976 1590s
    33    35  694.48413   20 1497  998.00000  656.38601  34.2%  9187 1634s
    34    36  664.71778   20 1663  998.00000  656.38601  34.2%  8968 1640s
    35    37  687.74708   21 1494  998.00000  656.38601  34.2%  9468 1726s
    36    38  664.97593   21 1663  998.00000  656.38601  34.2%  9266 1732s
    37    39  666.23375   22 1668  998.00000  656.38601  34.2%  9141 1745s
    38    40  694.87203   22 1468  998.00000  656.38601  34.2%  9509 1827s
    39    41  666.36837   23 1664  998.00000  656.38601  34.2%  9304 1831s
    40    42  722.02918   23 1557  998.00000  656.38601  34.2%  9419 1871s
    41    43  666.60984   24 1653  998.00000  656.38601  34.2%  9244 1877s
    42    44  721.78846   24 1526  998.00000  656.38601  34.2%  9342 1914s
    43    45  667.31895   25 1642  998.00000  656.38601  34.2%  9171 1940s
    44    46  686.85721   26 1511  998.00000  656.38601  34.2%  9324 1994s
    45    47  667.62521   26 1654  998.00000  656.38601  34.2%  9153 1999s
    46    48  686.49784   27 1491  998.00000  656.38601  34.2%  9264 2041s
    47    49  668.12080   27 1642  998.00000  656.38601  34.2%  9096 2046s
    48    50  688.75335   28 1506  998.00000  656.38601  34.2%  9571 2152s
    49    51  668.90153   28 1639  998.00000  656.38601  34.2%  9432 2159s
    50    52  688.57295   29 1534  998.00000  656.38601  34.2%  9501 2195s
    51    53  669.45319   29 1631  998.00000  656.38601  34.2%  9362 2201s
    52    54  669.72976   30 1627  998.00000  656.38601  34.2%  9226 2206s
    53    55  670.22438   31 1637  998.00000  656.38601  34.2%  9095 2212s
    54    56  705.43556   32 1427  998.00000  656.38601  34.2%  9204 2257s
    55    57  671.29075   32 1590  998.00000  656.38601  34.2%  9071 2264s
    56    58  740.59818   33 1379  998.00000  656.38601  34.2%  9551 2371s
    57    59  671.71811   33 1606  998.00000  656.38601  34.2%  9431 2376s
    58    60  672.33022   34 1561  998.00000  656.38601  34.2%  9312 2382s
    59    61  702.19339   34 1471  998.00000  656.38601  34.2%  9406 2417s
    60    62  673.41029   35 1590  998.00000  656.38601  34.2%  9310 2426s
    61    63  691.41537   35 1396  998.00000  656.38601  34.2%  9356 2456s
    62    64  674.62848   36 1570  998.00000  656.38601  34.2%  9241 2462s
    63    65  699.99228   36 1381  998.00000  656.38601  34.2%  9509 2540s
    64    66  675.17481   37 1585  998.00000  656.38601  34.2%  9405 2590s
    65    67  697.92035   37 1522  998.00000  656.38601  34.2%  9438 2622s
    66    68  676.26915   38 1568  998.00000  656.38601  34.2%  9352 2632s
    67    69  701.06285   38 1431  998.00000  656.38601  34.2%  9415 2669s
    68    70  677.45240   39 1570  998.00000  656.38601  34.2%  9312 2677s
    69    71  697.44416   39 1409  998.00000  656.38601  34.2%  9406 2728s
    70    72  679.74499   40 1565  998.00000  656.38601  34.2%  9351 2741s
    71    73  703.26158   40 1475  998.00000  656.38601  34.2%  9395 2773s
    72    74  681.09412   41 1573  998.00000  656.38601  34.2%  9301 2781s
    73    75  701.94264   41 1515  998.00000  656.38601  34.2%  9381 2830s
    74    76  683.29521   42 1572  998.00000  656.38601  34.2%  9324 2844s
    75    77  704.57227   42 1448  998.00000  656.38601  34.2%  9374 2880s
    76    78  684.10133   43 1566  998.00000  656.38601  34.2%  9279 2887s
    77    79  709.06891   43 1419  998.00000  656.38601  34.2%  9366 2941s
    79    81  725.25505   44 1412  998.00000  656.38601  34.2%  9322 2981s
    81    83  716.26921   46 1417  998.00000  656.38601  34.2%  9301 3043s
    82    84  684.77877   46 1567  998.00000  656.38601  34.2%  9218 3049s
    83    85  723.00191   47 1407  998.00000  656.38601  34.2%  9280 3079s
    84    86  684.98968   47 1563  998.00000  656.38601  34.2%  9186 3084s
    85    87  701.87704   48 1427  998.00000  656.38601  34.2%  9275 3138s
    86    88  688.45545   48 1555  998.00000  656.38601  34.2%  9238 3153s
    87    89  688.89971   49 1577  998.00000  656.38601  34.2%  9162 3158s
    88    90  749.39818   49 1500  998.00000  656.38601  34.2%  9241 3197s
    89    91  690.23593   50 1563  998.00000  656.38601  34.2%  9163 3203s
    90    92  713.37972   50 1503  998.00000  656.38601  34.2%  9225 3245s
    91    93  690.73039   51 1568  998.00000  656.38601  34.2%  9149 3250s
    92    94  711.54356   51 1524  998.00000  656.38601  34.2%  9183 3277s
    93    95  691.09291   52 1548  998.00000  656.38601  34.2%  9098 3280s
    94    96  746.19880   52 1492  998.00000  656.38601  34.2%  9259 3354s
    95    97  691.24838   53 1552  998.00000  656.38601  34.2%  9171 3356s
    96    98  753.49525   53 1473  998.00000  656.38601  34.2%  9234 3393s
    97    99  693.36872   54 1539  998.00000  656.38601  34.2%  9189 3403s
    98   100  721.27071   54 1424  998.00000  656.38601  34.2%  9217 3428s
    99   101  695.41914   55 1533  998.00000  656.38601  34.2%  9164 3440s
   100   102  714.83957   55 1494  998.00000  656.38601  34.2%  9270 3496s
   101   103  698.41257   56 1521  998.00000  656.38601  34.2%  9223 3506s
   102   104  716.83252   56 1463  998.00000  656.38601  34.2%  9234 3529s
   103   105  699.16281   57 1484  998.00000  656.38601  34.2%  9171 3535s
   104   106  741.11318   57 1429  998.00000  656.38601  34.2%  9206 3562s
   105   107  703.62824   58 1488  998.00000  656.38601  34.2%  9156 3570s
   106   108  722.45513   59 1431  998.00000  656.38601  34.2%  9185 3596s

Cutting planes:
  Cover: 1
  MIR: 65
  StrongCG: 5
  Zero half: 37
  Mod-K: 3
  RLT: 965

Explored 107 nodes (1114564 simplex iterations) in 3600.01 seconds
Thread count was 1 (of 40 available processors)

Solution count 1: 998 

Time limit reached
Best objective 9.980000000000e+02, best bound 6.570000000000e+02, gap 34.1683%

User-callback calls 41076, time in user-callback 0.08 sec
